projected/problems_b25_r0_d7_m100_s666/_DIMACS/b25_d7_r0_s666_034.cnf
p cnf 172 230 25
c p show 1 2 3 4 5 6 7 8 9 10 11 12 13 14 15 16 17 18 19 20 21 22 23 24 25
-160 22 0
-160 -1 0
-161 15 -8 0
-162 161 160 0
-163 -10 6 0
-164 -6 10 0
-165 164 0
-165 163 0
-166 25 11 0
-167 -11 -25 0
-168 167 0
-168 166 0
-169 168 0
-169 165 0
-170 169 162 0
-171 18 0
-171 25 0
-172 -24 8 0
-26 172 0
-26 171 0
-27 8 14 0
-28 9 0
-28 -14 0
-29 28 27 0
-30 29 0
-30 26 0
-31 30 0
-31 170 0
-32 6 0
-32 1 0
-33 23 0
-33 -5 0
-34 33 0
-34 32 0
-35 22 -19 0
-36 -10 0
-36 -5 0
-37 36 35 0
-38 37 0
-38 34 0
-39 4 0
-39 25 0
-40 -11 11 0
-41 40 39 0
-42 -5 0
-43 15 -24 0
-44 43 42 0
-45 44 41 0
-46 45 38 0
-47 46 31 0
-48 9 0
-48 17 0
-49 -3 0
-49 -16 0
-50 49 48 0
-51 -24 3 0
-52 -1 0
-52 -9 0
-53 9 0
-53 1 0
-54 53 52 0
-55 54 0
-55 51 0
-56 55 0
-56 50 0
-57 -9 0
-57 9 0
-58 14 0
-58 -7 0
-59 58 0
-59 57 0
-60 -7 11 0
-61 25 -19 0
-62 61 0
-62 60 0
-63 62 59 0
-64 63 56 0
-65 -22 0
-65 10 0
-66 22 0
-66 -4 0
-67 66 65 0
-68 2 0
-68 -2 0
-69 5 0
-69 14 0
-70 69 0
-70 68 0
-71 70 67 0
-72 -8 -14 0
-73 1 0
-73 24 0
-74 73 72 0
-75 25 0
-75 16 0
-76 -13 0
-76 -18 0
-77 76 75 0
-78 77 74 0
-79 78 71 0
-80 79 64 0
-81 80 47 0
-82 1 0
-82 -8 0
-83 -17 25 0
-84 83 82 0
-85 21 9 0
-86 16 0
-86 -16 0
-87 86 85 0
-88 87 84 0
-89 5 0
-89 -4 0
-90 -25 0
-90 9 0
-91 90 89 0
-92 23 0
-92 9 0
-93 9 3 0
-94 -3 -9 0
-95 94 0
-95 93 0
-96 95 0
-96 92 0
-97 96 91 0
-98 97 88 0
-99 2 0
-99 -4 0
-100 -7 -4 0
-101 100 99 0
-102 3 0
-102 -3 0
-103 -7 0
-103 6 0
-104 103 0
-104 102 0
-105 104 101 0
-106 15 0
-106 20 0
-107 -20 0
-107 -15 0
-108 107 106 0
-109 -16 0
-109 -5 0
-110 109 108 0
-111 -2 0
-111 -23 0
-112 18 0
-112 -24 0
-113 112 111 0
-114 113 0
-114 110 0
-115 114 105 0
-116 115 0
-116 98 0
-117 -24 0
-117 9 0
-118 -3 0
-118 22 0
-119 118 117 0
-120 -14 16 0
-121 -2 -21 0
-122 121 0
-122 120 0
-123 122 119 0
-124 14 0
-124 -16 0
-125 2 0
-125 21 0
-126 125 124 0
-127 24 -9 0
-128 3 -22 0
-129 128 0
-129 127 0
-130 129 126 0
-131 130 0
-131 123 0
-132 -19 0
-132 2 0
-133 8 -21 0
-134 133 132 0
-135 18 -8 0
-136 16 0
-136 2 0
-137 -2 0
-137 -16 0
-138 137 136 0
-139 138 0
-139 135 0
-140 139 134 0
-141 140 0
-141 131 0
-142 4 0
-142 -2 0
-143 142 0
-143 48 0
-144 -24 0
-144 10 0
-145 -24 0
-145 -4 0
-146 145 144 0
-147 146 143 0
-148 14 0
-148 15 0
-149 -15 0
-149 -14 0
-150 149 148 0
-151 -12 0
-151 -4 0
-152 151 150 0
-153 -3 -5 0
-154 -18 0
-154 11 0
-155 154 0
-155 153 0
-156 155 152 0
-157 156 0
-157 147 0
-158 157 141 0
-159 158 116 0
159 81 0
-120 -124 0
-124 -120 0
-121 -125 0
-125 -121 0
-126 -122 0
-117 -127 0
-128 -118 0
-118 -128 0
-119 -129 0
