projected/problems_b25_r0_d7_m100_s666/b25_d7_r0_s666_034.smt2
(set-logic QF_UF)
(declare-fun A0 () Bool)
(declare-fun A1 () Bool)
(declare-fun A2 () Bool)
(declare-fun A3 () Bool)
(declare-fun A4 () Bool)
(declare-fun A5 () Bool)
(declare-fun A6 () Bool)
(declare-fun A7 () Bool)
(declare-fun A8 () Bool)
(declare-fun A9 () Bool)
(declare-fun A10 () Bool)
(declare-fun A11 () Bool)
(declare-fun A12 () Bool)
(declare-fun A13 () Bool)
(declare-fun A14 () Bool)
(declare-fun A15 () Bool)
(declare-fun A16 () Bool)
(declare-fun A17 () Bool)
(declare-fun A18 () Bool)
(declare-fun A19 () Bool)
(declare-fun A20 () Bool)
(declare-fun A21 () Bool)
(declare-fun A22 () Bool)
(declare-fun A23 () Bool)
(declare-fun A24 () Bool)
(assert (let ((.def_0 (not A21))) (let ((.def_1 (or .def_0 A0))) (let ((.def_2 (not .def_1))) (let ((.def_3 (not A14))) (let ((.def_4 (and .def_3 A7))) (let ((.def_5 (not .def_4))) (let ((.def_6 (or .def_5 .def_2))) (let ((.def_7 (not .def_6))) (let ((.def_8 (= A5 A9))) (let ((.def_9 (not A24))) (let ((.def_10 (= A10 .def_9))) (let ((.def_11 (and .def_10 .def_8))) (let ((.def_12 (not .def_11))) (let ((.def_13 (and .def_12 .def_7))) (let ((.def_14 (not A17))) (let ((.def_15 (or .def_14 .def_9))) (let ((.def_16 (not .def_15))) (let ((.def_17 (not A23))) (let ((.def_18 (or .def_17 A7))) (let ((.def_19 (and .def_18 .def_16))) (let ((.def_20 (not .def_19))) (let ((.def_21 (or A7 A13))) (let ((.def_22 (not .def_21))) (let ((.def_23 (not A8))) (let ((.def_24 (or .def_23 A13))) (let ((.def_25 (and .def_24 .def_22))) (let ((.def_26 (or .def_25 .def_20))) (let ((.def_27 (or .def_26 .def_13))) (let ((.def_28 (not .def_27))) (let ((.def_29 (not A0))) (let ((.def_30 (not A5))) (let ((.def_31 (or .def_30 .def_29))) (let ((.def_32 (not A22))) (let ((.def_33 (or .def_32 A4))) (let ((.def_34 (or .def_33 .def_31))) (let ((.def_35 (and .def_0 A18))) (let ((.def_36 (or A9 A4))) (let ((.def_37 (and .def_36 .def_35))) (let ((.def_38 (or .def_37 .def_34))) (let ((.def_39 (not A3))) (let ((.def_40 (or .def_39 .def_9))) (let ((.def_41 (not .def_40))) (let ((.def_42 (not A10))) (let ((.def_43 (and A10 .def_42))) (let ((.def_44 (not .def_43))) (let ((.def_45 (or .def_44 .def_41))) (let ((.def_46 (not A4))) (let ((.def_47 (and .def_46 .def_46))) (let ((.def_48 (not .def_47))) (let ((.def_49 (or A14 .def_17))) (let ((.def_50 (not .def_49))) (let ((.def_51 (and .def_50 .def_48))) (let ((.def_52 (not .def_51))) (let ((.def_53 (or .def_52 .def_45))) (let ((.def_54 (not .def_53))) (let ((.def_55 (and .def_54 .def_38))) (let ((.def_56 (not .def_55))) (let ((.def_57 (or .def_56 .def_28))) (let ((.def_58 (not .def_57))) (let ((.def_59 (and A8 A16))) (let ((.def_60 (not A15))) (let ((.def_61 (not A2))) (let ((.def_62 (and .def_61 .def_60))) (let ((.def_63 (or .def_62 .def_59))) (let ((.def_64 (not .def_63))) (let ((.def_65 (and A23 .def_61))) (let ((.def_66 (not .def_65))) (let ((.def_67 (= A8 .def_29))) (let ((.def_68 (not .def_67))) (let ((.def_69 (and .def_68 .def_66))) (let ((.def_70 (not .def_69))) (let ((.def_71 (or .def_70 .def_64))) (let ((.def_72 (and .def_23 A8))) (let ((.def_73 (not .def_72))) (let ((.def_74 (not A13))) (let ((.def_75 (or .def_74 A6))) (let ((.def_76 (or .def_75 .def_73))) (let ((.def_77 (not A6))) (let ((.def_78 (or .def_77 A10))) (let ((.def_79 (not .def_78))) (let ((.def_80 (and .def_9 A18))) (let ((.def_81 (or .def_80 .def_79))) (let ((.def_82 (and .def_81 .def_76))) (let ((.def_83 (and .def_82 .def_71))) (let ((.def_84 (and .def_0 A9))) (let ((.def_85 (and A21 .def_39))) (let ((.def_86 (or .def_85 .def_84))) (let ((.def_87 (not .def_86))) (let ((.def_88 (not A1))) (let ((.def_89 (and A1 .def_88))) (let ((.def_90 (or .def_46 .def_74))) (let ((.def_91 (not .def_90))) (let ((.def_92 (and .def_91 .def_89))) (let ((.def_93 (not .def_92))) (let ((.def_94 (and .def_93 .def_87))) (let ((.def_95 (not .def_94))) (let ((.def_96 (and A7 A13))) (let ((.def_97 (not .def_96))) (let ((.def_98 (or .def_29 .def_17))) (let ((.def_99 (not .def_98))) (let ((.def_100 (or .def_99 .def_97))) (let ((.def_101 (and A24 A15))) (let ((.def_102 (or A12 A17))) (let ((.def_103 (not .def_102))) (let ((.def_104 (or .def_103 .def_101))) (let ((.def_105 (or .def_104 .def_100))) (let ((.def_106 (or .def_105 .def_95))) (let ((.def_107 (not .def_106))) (let ((.def_108 (and .def_107 .def_83))) (let ((.def_109 (and .def_108 .def_58))) (let ((.def_110 (not A7))) (let ((.def_111 (and A0 .def_110))) (let ((.def_112 (not .def_111))) (let ((.def_113 (and A16 .def_9))) (let ((.def_114 (and .def_113 .def_112))) (let ((.def_115 (not A20))) (let ((.def_116 (and .def_115 .def_23))) (let ((.def_117 (not .def_116))) (let ((.def_118 (and A15 .def_60))) (let ((.def_119 (or .def_118 .def_117))) (let ((.def_120 (not .def_119))) (let ((.def_121 (and .def_120 .def_114))) (let ((.def_122 (not .def_121))) (let ((.def_123 (and A4 .def_39))) (let ((.def_124 (not .def_123))) (let ((.def_125 (or A24 .def_23))) (let ((.def_126 (and .def_125 .def_124))) (let ((.def_127 (not .def_126))) (let ((.def_128 (and A22 A8))) (let ((.def_129 (not .def_128))) (let ((.def_130 (= A2 .def_23))) (let ((.def_131 (not .def_130))) (let ((.def_132 (or .def_131 .def_129))) (let ((.def_133 (not .def_132))) (let ((.def_134 (or .def_133 .def_127))) (let ((.def_135 (or .def_134 .def_122))) (let ((.def_136 (not .def_135))) (let ((.def_137 (and A1 .def_39))) (let ((.def_138 (or .def_77 .def_39))) (let ((.def_139 (or .def_138 .def_137))) (let ((.def_140 (and A2 .def_61))) (let ((.def_141 (and .def_77 A5))) (let ((.def_142 (and .def_141 .def_140))) (let ((.def_143 (or .def_142 .def_139))) (let ((.def_144 (not .def_143))) (let ((.def_145 (not A19))) (let ((.def_146 (= .def_145 A14))) (let ((.def_147 (not .def_146))) (let ((.def_148 (or A15 A4))) (let ((.def_149 (not .def_148))) (let ((.def_150 (or .def_149 .def_147))) (let ((.def_151 (or A1 A22))) (let ((.def_152 (not .def_151))) (let ((.def_153 (or .def_14 A23))) (let ((.def_154 (not .def_153))) (let ((.def_155 (or .def_154 .def_152))) (let ((.def_156 (and .def_155 .def_150))) (let ((.def_157 (not .def_156))) (let ((.def_158 (and .def_157 .def_144))) (let ((.def_159 (or .def_158 .def_136))) (let ((.def_160 (not .def_159))) (let ((.def_161 (or .def_74 A15))) (let ((.def_162 (not .def_161))) (let ((.def_163 (or .def_88 .def_115))) (let ((.def_164 (not .def_163))) (let ((.def_165 (or .def_164 .def_162))) (let ((.def_166 (and .def_17 A8))) (let ((.def_167 (or A2 .def_0))) (let ((.def_168 (not .def_167))) (let ((.def_169 (or .def_168 .def_166))) (let ((.def_170 (= .def_169 .def_165))) (let ((.def_171 (not .def_170))) (let ((.def_172 (or A18 .def_88))) (let ((.def_173 (not .def_172))) (let ((.def_174 (or A7 .def_115))) (let ((.def_175 (or .def_174 .def_173))) (let ((.def_176 (or A17 .def_110))) (let ((.def_177 (not .def_176))) (let ((.def_178 (= .def_88 A15))) (let ((.def_179 (or .def_178 .def_177))) (let ((.def_180 (not .def_179))) (let ((.def_181 (or .def_180 .def_175))) (let ((.def_182 (not .def_181))) (let ((.def_183 (or .def_182 .def_171))) (let ((.def_184 (not .def_59))) (let ((.def_185 (and A3 .def_88))) (let ((.def_186 (not .def_185))) (let ((.def_187 (or .def_186 .def_184))) (let ((.def_188 (not .def_187))) (let ((.def_189 (and .def_17 A9))) (let ((.def_190 (and .def_17 .def_39))) (let ((.def_191 (or .def_190 .def_189))) (let ((.def_192 (or .def_191 .def_188))) (let ((.def_193 (not .def_192))) (let ((.def_194 (= .def_3 A13))) (let ((.def_195 (not .def_194))) (let ((.def_196 (not A11))) (let ((.def_197 (and .def_196 .def_39))) (let ((.def_198 (or .def_197 .def_195))) (let ((.def_199 (not .def_198))) (let ((.def_200 (or .def_61 .def_46))) (let ((.def_201 (not .def_200))) (let ((.def_202 (or A17 .def_42))) (let ((.def_203 (or .def_202 .def_201))) (let ((.def_204 (and .def_203 .def_199))) (let ((.def_205 (or .def_204 .def_193))) (let ((.def_206 (and .def_205 .def_183))) (let ((.def_207 (not .def_206))) (let ((.def_208 (or .def_207 .def_160))) (let ((.def_209 (not .def_208))) (let ((.def_210 (and .def_209 .def_109))) (let ((.def_211 (not .def_210))) .def_211)))))))))))))))))))))))))))))))))))))))))))))))))))))))))))))))))))))))))))))))))))))))))))))))))))))))))))))))))))))))))))))))))))))))))))))))))))))))))))))))))))))))))))))))))))))))))))))))))))))))))))))))))))))
(check-sat)
